
  22   10
  10   10   10   10   10   10   10   10   10   10

   0   0   0   0   0   0   0   0   0   0   0   4 2 4 6 8 
   5  10   0   0   0   0   0   0   0   0   0   2 5 3 
   8   0   0   0   0   0  10   0   0   0   0   2 12 7 
   7   0   0   0   0   0   0   0   0  10   0   2 12 7 
   9   0   0   0   0   0   0  10   0   0   0   3 12 11 10 
   9   0   0   0   0  10   0   0   0   0   0   3 12 11 10 
   2   0  10   0   0   0   0   0   0   0   0   3 13 11 9 
   1   0   0  10   0   0   0   0   0   0   0   3 15 14 10 
   8   0  10   0   0   0   0   0   0   0   0   5 21 17 16 15 14 
   5   0   0   0   0   0  10   0   0   0   0   2 20 13 
   2   0   0   0   0   0   0   0  10   0   0   3 21 15 14 
   2   0   0   0   0   0   0  10   0   0   0   3 21 16 14 
   8   0   0  10   0   0   0   0   0   0   0   3 21 17 16 
   9   0   0   0  10   0   0   0   0   0   0   3 20 19 18 
  10  10   0   0   0   0   0   0   0   0   0   3 20 19 18 
   1   0   0   0   0   0   0   0   0   0  10   2 19 18 
   6   0   0   0   0   0   0   0  10   0   0   1 18 
   1   0   0   0   0   0   0  10   0   0   0   1 22
   2   0   0   0   0   0   0   0  10   0   0   1 22
  10   0   0   0   0   0   0   0   0   0  10   1 22
   6  10   0   0   0   0   0   0   0   0   0   1 22
   0   0   0   0   0   0   0   0   0   0   0   0 
